results_rootrelaxation/bin018_060_039.srr.sol
solution status: optimal solution found
objective value:                                    0
_var1582_                          0.0245110449831713 	(obj:0)
_var2721_                           0.114600311298023 	(obj:0)
_var2726_                           0.264847078484252 	(obj:0)
_var2728_                           0.105630545016213 	(obj:0)
_var2739_                           0.213104530775431 	(obj:0)
_var2750_                           0.116906466263639 	(obj:0)
_var2753_                          0.0870126922016163 	(obj:0)
_var2754_                           0.262027005412003 	(obj:0)
_var2755_                         0.00221572142365981 	(obj:0)
_var2772_                          0.0414643444818107 	(obj:0)
_var2782_                           0.304607800318698 	(obj:0)
_var2789_                          0.0952209040258084 	(obj:0)
_var2817_                          0.0841055914417569 	(obj:0)
_var2818_                          0.0913062266288638 	(obj:0)
_var2829_                           0.166460986297976 	(obj:0)
_var2853_                           0.180683135923775 	(obj:0)
_var2864_                            0.04815131332402 	(obj:0)
_var2865_                          0.0259078692708441 	(obj:0)
_var2870_                           0.100085655340882 	(obj:0)
_var2871_                           0.203462202987693 	(obj:0)
_var2876_                           0.130209090763271 	(obj:0)
_var2880_                           0.182164516581076 	(obj:0)
_var2887_                           0.284847795536824 	(obj:0)
_var2891_                          0.0233900735974658 	(obj:0)
_var2893_                           0.270922206569472 	(obj:0)
_var2896_                          0.0381925975045098 	(obj:0)
_var2899_                           0.170124027295237 	(obj:0)
_var2900_                           0.150447672742887 	(obj:0)
_var2901_                          0.0258324869037358 	(obj:0)
_var2908_                          0.0910593971308714 	(obj:0)
_var2917_                          0.0137074148768875 	(obj:0)
_var2923_                           0.120328004028591 	(obj:0)
_var2925_                           0.131940069200644 	(obj:0)
_var2927_                           0.202924894432084 	(obj:0)
_var2928_                          0.0813495176063466 	(obj:0)
_var2929_                           0.316247387664988 	(obj:0)
_var2938_                           0.103122103410094 	(obj:0)
_var2939_                          0.0469549658889405 	(obj:0)
_var2940_                          0.0598123088108906 	(obj:0)
_var2942_                          0.0470724713553753 	(obj:0)
_var2946_                           0.206620245787564 	(obj:0)
_var2948_                          0.0304421418305487 	(obj:0)
_var2950_                            0.16806915676904 	(obj:0)
_var2952_                          0.0809469504313687 	(obj:0)
_var2958_                           0.211586849712225 	(obj:0)
_var2962_                          0.0335874392236285 	(obj:0)
_var2974_                           0.224257035180727 	(obj:0)
_var2979_                          0.0950624640562813 	(obj:0)
_var2985_                           0.158007079860787 	(obj:0)
_var2988_                            0.41373757758808 	(obj:0)
_var2989_                          0.0211946564315747 	(obj:0)
_var2993_                          0.0697057091616671 	(obj:0)
_var2995_                          0.0652427759278478 	(obj:0)
_var2998_                           0.064390162517784 	(obj:0)
_var3001_                           0.073379791898195 	(obj:0)
_var3005_                           0.174297095380823 	(obj:0)
_var3012_                           0.101096009795451 	(obj:0)
_var3013_                          0.0834986707747055 	(obj:0)
_var3015_                           0.117786234213383 	(obj:0)
_var3016_                           0.153572114642713 	(obj:0)
_var3017_                           0.263144984448118 	(obj:0)
_var3018_                          0.0223939168638769 	(obj:0)
_var3019_                           0.152840621941792 	(obj:0)
_var3020_                           0.105458853234394 	(obj:0)
_var3022_                           0.039293272162996 	(obj:0)
_var3023_                          0.0767238011504764 	(obj:0)
_var3024_                           0.162659659017697 	(obj:0)
_var3025_                          0.0821395141352044 	(obj:0)
_var3027_                          0.0282287811707442 	(obj:0)
_var3030_                           0.175933635863318 	(obj:0)
_var3034_                           0.179070464851042 	(obj:0)
_var3035_                           0.140695742602071 	(obj:0)
_var3036_                           0.150800986621333 	(obj:0)
_var3038_                           0.198467863218297 	(obj:0)
_var3040_                          0.0954588001673996 	(obj:0)
_var3045_                           0.385526412483888 	(obj:0)
_var3047_                          0.0100183870979859 	(obj:0)
_var3048_                           0.289638573804858 	(obj:0)
_var3049_                           0.245729386638288 	(obj:0)
_var3051_                           0.211378639754914 	(obj:0)
_var3052_                            0.12063158211899 	(obj:0)
_var3054_                           0.313472226182061 	(obj:0)
_var3055_                           0.269246581766144 	(obj:0)
_var3058_                          0.0543608034852445 	(obj:0)
_var3061_                           0.233262716376555 	(obj:0)
_var3063_                          0.0366739003412205 	(obj:0)
_var3064_                           0.145942560037801 	(obj:0)
_var3066_                           0.144122296323131 	(obj:0)
_var3068_                          0.0378326243880485 	(obj:0)
_var3069_                         0.00811390431335068 	(obj:0)
_var3072_                           0.277214751285362 	(obj:0)
_var3077_                          0.0145205792949948 	(obj:0)
_var3078_                          0.0432071430317409 	(obj:0)
_var3079_                            0.19079444348178 	(obj:0)
_var3080_                           0.121087818859062 	(obj:0)
_var3081_                           0.127550269024173 	(obj:0)
_var3084_                           0.238041506266667 	(obj:0)
_var3086_                          0.0177617130499016 	(obj:0)
_var3087_                           0.205639813852618 	(obj:0)
_var3092_                           0.306426165712684 	(obj:0)
_var3094_                           0.264950836053793 	(obj:0)
_var3095_                          0.0139514038185956 	(obj:0)
_var3098_                          0.0747824156281422 	(obj:0)
_var3100_                          0.0312509286635603 	(obj:0)
_var3101_                           0.132468789767656 	(obj:0)
_var3103_                          0.0540218933917722 	(obj:0)
_var3104_                          0.0630975568693022 	(obj:0)
_var3106_                          0.0382500828302814 	(obj:0)
_var3109_                          0.0258128964316293 	(obj:0)
_var3110_                           0.174392552766684 	(obj:0)
_var3111_                          0.0773748485334306 	(obj:0)
_var3114_                          0.0698246178801125 	(obj:0)
_var3115_                          0.0247062082550875 	(obj:0)
_var3116_                           0.112858536008579 	(obj:0)
_var3118_                          0.0458071962197195 	(obj:0)
_var3119_                         0.00883176967529773 	(obj:0)
_var3120_                          0.0921704876649646 	(obj:0)
_var3122_                          0.0380794321661617 	(obj:0)
_var3123_                           0.132715129458158 	(obj:0)
_var3125_                           0.135630765862455 	(obj:0)
_var3126_                          0.0830952353763554 	(obj:0)
_var3127_                          0.0369814171159827 	(obj:0)
_var3128_                          0.0907085391578116 	(obj:0)
_var3129_                          0.0401699089438689 	(obj:0)
_var3130_                          0.0571045919535848 	(obj:0)
_var3132_                          0.0821863697774676 	(obj:0)
_var3135_                         0.00140954037814817 	(obj:0)
_var3136_                          0.0248279484745784 	(obj:0)
_var3137_                           0.063130326255496 	(obj:0)
_var3139_                           0.131602250763581 	(obj:0)
_var3141_                          0.0936098660765028 	(obj:0)
_var3143_                          0.0885540500610846 	(obj:0)
_var3144_                           0.172821655848634 	(obj:0)
_var3145_                           0.078831341835742 	(obj:0)
_var3147_                           0.153470021305316 	(obj:0)
_var3148_                         0.00201868543147993 	(obj:0)
_var3149_                           0.030299087020904 	(obj:0)
_var3151_                         0.00732889087290833 	(obj:0)
_var3152_                          0.0496332080154943 	(obj:0)
_var3153_                           0.120800849960434 	(obj:0)
_var3154_                          0.0435995885062611 	(obj:0)
_var3155_                           0.105458853234394 	(obj:0)
_var3158_                          0.0331360154517448 	(obj:0)
_var3159_                          0.0022532861765185 	(obj:0)
_var3161_                          0.0422548199116688 	(obj:0)
_var3166_                          0.0350829756341595 	(obj:0)
_var3167_                          0.0746352567340113 	(obj:0)
_var3168_                            0.08635242478218 	(obj:0)
_var3170_                         0.000330860107334574 	(obj:0)
_var3175_                          0.0377134804473507 	(obj:0)
_var3177_                          0.0286740210386723 	(obj:0)
